NAME: concorde91
TYPE: TSP
DIMENSION: 25 
EDGE_WEIGHT_TYPE: EUC_2D
NODE_COORD_SECTION
1 80 46
2 83 80
3 64 68
4 84 91
5 68 54
6 27 10
7 81 79
8 30 17
9 46 63
10 32 64
11 0 15
12 91 50
13 77 36
14 0 28
15 7 37
16 80 83
17 65 19
18 44 46
19 75 74
20 49 84
21 48 94
22 83 18
23 57 24
24 98 59
25 89 46
